************************************************************************
file with basedata            : mm51_.bas
initial value random generator: 1235887528
************************************************************************
projects                      :  1
jobs (incl. supersource/sink ):  12
horizon                       :  73
RESOURCES
  - renewable                 :  2   R
  - nonrenewable              :  2   N
  - doubly constrained        :  0   D
************************************************************************
PROJECT INFORMATION:
pronr.  #jobs rel.date duedate tardcost  MPM-Time
    1     10      0       19        7       19
************************************************************************
PRECEDENCE RELATIONS:
jobnr.    #modes  #successors   successors
   0        1          3           1   2   3
   1        3          3           7   8  10
   2        3          3           5   6  10
   3        3          2           4   9
   4        3          1           6
   5        3          1           9
   6        3          1           8
   7        3          1           9
   8        3          1          11
   9        3          1          11
  10        3          1          11
  11        1          0        
************************************************************************
REQUESTS/DURATIONS:
jobnr. mode duration  R 1  R 2  R 3  R 4  E(W 1)  E(W 2)
------------------------------------------------------------------------
  0      1     0       0    0    0    0     0       0
  1      1     7       7    9    0    7    112      49
  2      1     1       8    5    9    0    13       9
  3      1     3      10    8    0    6    54      18
  4      1     7       4    7    0    9    77      63
  5      1     4       8    5    7    0    52      28
  6      1     5       8    9    7    0    85      35
  7      1     2       5    4    4    0    18       8
  8      1     4       6    9    0    5    60      20
  9      1     4       5    7    0    8    48      32
 10      1     2       6    6    6    0    24      12
 11      1     0       0    0    0    0     0       0
************************************************************************
RESOURCEAVAILABILITIES:
  R 1  R 2
   38   91
************************************************************************
RESOURCE LIMITS:
jobnr.  l(R 1)  u(R 1)  l(R 2)  u(R 2)
------------------------------------------------------------------------
  0        0       0       0       0
  1        9      16       4       7
  2        7      13       5       9
  3        9      18       3       6
  4        6      11       5       9
  5        7      13       4       7
  6        9      17       4       7
  7        5       9       2       4
  8        8      15       3       5
  9        7      12       4       8
 10        6      12       3       6
 11        0       0       0       0
************************************************************************
SCENARIOS:
------------------------------------------------------------------------
RESOURCE k = 1
s = 1: (0, 116, 17, 64, 97, 41, 134, 16, 67, 51, 33, 0)
s = 2: (0, 81, 12, 39, 52, 34, 63, 16, 46, 48, 24, 0)
s = 3: (0, 88, 10, 45, 60, 73, 71, 23, 95, 37, 20, 0)
s = 4: (0, 128, 12, 36, 78, 48, 107, 13, 57, 60, 30, 0)
s = 5: (0, 113, 17, 81, 104, 34, 78, 33, 50, 63, 22, 0)
s = 6: (0, 61, 24, 38, 75, 74, 76, 14, 57, 36, 37, 0)
s = 7: (0, 74, 10, 47, 61, 34, 98, 23, 76, 54, 32, 0)
s = 8: (0, 119, 15, 86, 78, 60, 106, 17, 53, 58, 14, 0)
s = 9: (0, 101, 12, 58, 61, 50, 160, 20, 50, 47, 24, 0)
s = 10: (0, 99, 9, 46, 68, 49, 98, 18, 37, 52, 26, 0)
s = 11: (0, 112, 16, 48, 65, 63, 79, 28, 74, 38, 32, 0)
s = 12: (0, 171, 10, 35, 52, 70, 114, 15, 74, 63, 15, 0)
s = 13: (0, 79, 15, 82, 49, 81, 96, 10, 44, 51, 22, 0)
s = 14: (0, 106, 16, 31, 88, 83, 64, 21, 61, 47, 32, 0)
s = 15: (0, 175, 16, 42, 74, 30, 128, 15, 43, 52, 32, 0)
s = 16: (0, 87, 12, 71, 77, 56, 63, 17, 50, 43, 20, 0)
s = 17: (0, 85, 13, 53, 40, 51, 91, 12, 53, 43, 24, 0)
s = 18: (0, 162, 17, 32, 104, 47, 59, 10, 68, 57, 29, 0)
s = 19: (0, 103, 16, 58, 99, 32, 58, 16, 50, 32, 20, 0)
s = 20: (0, 154, 14, 60, 113, 43, 105, 10, 65, 55, 27, 0)
s = 21: (0, 124, 8, 64, 72, 79, 129, 11, 47, 41, 27, 0)
s = 22: (0, 117, 11, 84, 93, 38, 101, 19, 75, 67, 16, 0)
s = 23: (0, 129, 11, 39, 70, 61, 68, 22, 39, 59, 40, 0)
s = 24: (0, 133, 14, 39, 102, 74, 98, 24, 51, 62, 26, 0)
s = 25: (0, 147, 10, 41, 64, 52, 82, 15, 41, 58, 30, 0)
s = 26: (0, 108, 15, 57, 76, 41, 103, 21, 49, 35, 23, 0)
s = 27: (0, 119, 12, 46, 48, 64, 110, 17, 47, 34, 19, 0)
s = 28: (0, 101, 23, 61, 73, 37, 100, 16, 35, 33, 27, 0)
s = 29: (0, 96, 13, 39, 75, 49, 72, 30, 68, 31, 23, 0)
s = 30: (0, 101, 16, 46, 109, 50, 52, 15, 56, 57, 29, 0)
s = 31: (0, 114, 19, 54, 120, 58, 128, 11, 65, 49, 19, 0)
s = 32: (0, 139, 20, 77, 68, 33, 103, 18, 86, 37, 20, 0)
s = 33: (0, 103, 12, 45, 74, 57, 87, 14, 76, 54, 38, 0)
s = 34: (0, 84, 14, 78, 68, 76, 84, 33, 39, 36, 14, 0)
s = 35: (0, 133, 11, 37, 67, 38, 74, 22, 32, 80, 32, 0)
s = 36: (0, 91, 12, 56, 101, 45, 100, 30, 53, 38, 16, 0)
s = 37: (0, 100, 11, 87, 63, 53, 84, 15, 46, 43, 18, 0)
s = 38: (0, 109, 15, 44, 61, 33, 64, 21, 68, 54, 32, 0)
s = 39: (0, 150, 21, 49, 90, 41, 74, 19, 63, 70, 25, 0)
s = 40: (0, 82, 8, 55, 69, 63, 84, 11, 43, 46, 24, 0)
s = 41: (0, 77, 16, 68, 53, 68, 60, 23, 67, 30, 15, 0)
s = 42: (0, 127, 10, 49, 113, 39, 88, 14, 95, 62, 22, 0)
s = 43: (0, 116, 13, 39, 103, 49, 60, 20, 78, 30, 20, 0)
s = 44: (0, 133, 14, 34, 53, 64, 103, 13, 33, 50, 23, 0)
s = 45: (0, 111, 12, 44, 79, 48, 69, 16, 34, 41, 28, 0)
s = 46: (0, 143, 13, 42, 88, 55, 74, 20, 99, 63, 15, 0)
s = 47: (0, 148, 8, 39, 95, 69, 59, 14, 43, 39, 24, 0)
s = 48: (0, 96, 10, 42, 106, 88, 61, 11, 63, 69, 22, 0)
s = 49: (0, 119, 16, 75, 58, 56, 121, 15, 41, 61, 22, 0)
s = 50: (0, 117, 16, 53, 135, 68, 108, 31, 52, 30, 19, 0)
s = 51: (0, 86, 10, 56, 63, 38, 79, 17, 47, 36, 25, 0)
s = 52: (0, 101, 10, 72, 117, 77, 93, 16, 59, 54, 33, 0)
s = 53: (0, 114, 17, 51, 119, 45, 87, 23, 74, 49, 14, 0)
s = 54: (0, 99, 12, 55, 59, 70, 150, 14, 57, 39, 32, 0)
s = 55: (0, 93, 14, 60, 49, 52, 133, 19, 45, 56, 22, 0)
s = 56: (0, 114, 17, 99, 70, 67, 76, 31, 38, 29, 41, 0)
s = 57: (0, 82, 8, 39, 101, 29, 77, 16, 62, 37, 17, 0)
s = 58: (0, 134, 12, 73, 68, 76, 78, 13, 70, 58, 36, 0)
s = 59: (0, 133, 25, 44, 79, 40, 107, 24, 43, 30, 31, 0)
s = 60: (0, 93, 10, 41, 108, 52, 105, 27, 58, 66, 25, 0)
s = 61: (0, 159, 15, 58, 58, 67, 121, 26, 56, 73, 15, 0)
s = 62: (0, 138, 10, 40, 81, 78, 133, 19, 47, 36, 17, 0)
s = 63: (0, 87, 13, 64, 62, 43, 109, 25, 48, 33, 32, 0)
s = 64: (0, 116, 14, 43, 124, 41, 113, 21, 83, 35, 21, 0)
s = 65: (0, 103, 13, 78, 113, 51, 58, 13, 80, 57, 33, 0)
s = 66: (0, 119, 14, 69, 43, 60, 140, 10, 62, 43, 15, 0)
s = 67: (0, 60, 11, 61, 78, 58, 82, 16, 59, 46, 19, 0)
s = 68: (0, 135, 22, 44, 89, 45, 60, 19, 79, 37, 24, 0)
s = 69: (0, 100, 15, 59, 77, 41, 63, 27, 39, 52, 25, 0)
s = 70: (0, 93, 14, 76, 68, 62, 81, 20, 43, 58, 20, 0)
s = 71: (0, 93, 11, 54, 77, 34, 71, 26, 95, 47, 24, 0)
s = 72: (0, 109, 12, 52, 59, 51, 137, 20, 62, 38, 21, 0)
s = 73: (0, 96, 9, 76, 51, 40, 77, 12, 81, 48, 28, 0)
s = 74: (0, 96, 11, 33, 83, 72, 66, 18, 35, 57, 27, 0)
s = 75: (0, 96, 21, 47, 93, 33, 89, 18, 86, 39, 22, 0)
s = 76: (0, 148, 9, 45, 89, 73, 105, 33, 67, 61, 31, 0)
s = 77: (0, 91, 14, 51, 72, 39, 95, 17, 71, 32, 13, 0)
s = 78: (0, 185, 9, 40, 84, 54, 47, 14, 51, 66, 29, 0)
s = 79: (0, 82, 12, 39, 102, 59, 55, 23, 76, 41, 14, 0)
s = 80: (0, 105, 13, 48, 118, 73, 57, 15, 63, 34, 22, 0)
s = 81: (0, 93, 9, 49, 104, 40, 75, 14, 70, 31, 25, 0)
s = 82: (0, 87, 12, 36, 65, 41, 103, 21, 71, 50, 26, 0)
s = 83: (0, 86, 17, 46, 68, 69, 61, 15, 96, 43, 16, 0)
s = 84: (0, 114, 8, 42, 69, 43, 61, 14, 47, 37, 17, 0)
s = 85: (0, 162, 10, 51, 69, 49, 107, 24, 36, 55, 25, 0)
s = 86: (0, 120, 11, 48, 64, 77, 60, 29, 63, 43, 22, 0)
s = 87: (0, 124, 14, 67, 71, 51, 99, 22, 44, 46, 22, 0)
s = 88: (0, 136, 12, 37, 57, 55, 90, 17, 48, 41, 31, 0)
s = 89: (0, 105, 9, 45, 81, 71, 66, 20, 54, 47, 31, 0)
s = 90: (0, 80, 10, 71, 65, 46, 104, 17, 60, 39, 25, 0)
s = 91: (0, 115, 17, 69, 57, 52, 112, 16, 61, 54, 25, 0)
s = 92: (0, 168, 15, 48, 97, 41, 63, 19, 44, 28, 25, 0)
s = 93: (0, 72, 9, 41, 108, 62, 99, 30, 50, 53, 34, 0)
s = 94: (0, 102, 10, 46, 73, 41, 71, 12, 59, 52, 17, 0)
s = 95: (0, 166, 11, 49, 72, 44, 65, 11, 70, 62, 43, 0)
s = 96: (0, 157, 9, 77, 64, 41, 87, 20, 81, 34, 23, 0)
s = 97: (0, 132, 17, 67, 78, 76, 55, 15, 52, 55, 21, 0)
s = 98: (0, 190, 9, 51, 65, 36, 87, 17, 42, 51, 32, 0)
s = 99: (0, 87, 14, 34, 78, 64, 112, 25, 51, 41, 22, 0)
s = 100: (0, 129, 13, 63, 71, 35, 73, 22, 67, 38, 28, 0)
s = 101: (0, 121, 22, 80, 68, 67, 87, 17, 69, 53, 29, 0)
s = 102: (0, 81, 9, 76, 57, 44, 67, 13, 71, 32, 31, 0)
s = 103: (0, 129, 13, 41, 91, 52, 94, 11, 47, 63, 19, 0)
s = 104: (0, 115, 14, 52, 104, 39, 124, 11, 76, 57, 26, 0)
s = 105: (0, 61, 13, 64, 84, 42, 132, 16, 51, 48, 29, 0)
s = 106: (0, 141, 8, 35, 104, 51, 70, 18, 85, 44, 15, 0)
s = 107: (0, 94, 14, 92, 83, 42, 79, 22, 43, 28, 27, 0)
s = 108: (0, 123, 9, 42, 45, 61, 80, 14, 46, 46, 21, 0)
s = 109: (0, 122, 10, 78, 64, 56, 109, 19, 57, 66, 23, 0)
s = 110: (0, 97, 13, 63, 67, 36, 120, 11, 59, 49, 21, 0)
s = 111: (0, 169, 12, 76, 91, 35, 88, 15, 62, 32, 19, 0)
s = 112: (0, 103, 18, 48, 71, 46, 141, 25, 45, 53, 30, 0)
s = 113: (0, 101, 17, 51, 52, 27, 66, 18, 44, 59, 41, 0)
s = 114: (0, 176, 19, 43, 80, 46, 104, 14, 96, 36, 34, 0)
s = 115: (0, 79, 18, 73, 75, 49, 54, 26, 47, 39, 14, 0)
s = 116: (0, 113, 16, 64, 87, 43, 67, 15, 100, 45, 22, 0)
s = 117: (0, 129, 16, 37, 64, 46, 130, 18, 81, 60, 20, 0)
s = 118: (0, 98, 15, 52, 102, 71, 133, 27, 55, 33, 18, 0)
s = 119: (0, 156, 25, 35, 84, 32, 93, 20, 36, 40, 24, 0)
s = 120: (0, 74, 13, 56, 86, 89, 77, 16, 63, 39, 18, 0)
s = 121: (0, 81, 10, 70, 81, 48, 122, 31, 74, 49, 14, 0)
s = 122: (0, 78, 13, 42, 90, 44, 63, 14, 83, 55, 20, 0)
s = 123: (0, 164, 19, 36, 75, 37, 91, 16, 36, 35, 21, 0)
s = 124: (0, 98, 11, 32, 84, 58, 59, 24, 91, 38, 16, 0)
s = 125: (0, 107, 19, 34, 114, 39, 90, 11, 49, 70, 27, 0)
s = 126: (0, 165, 12, 38, 42, 29, 63, 27, 55, 64, 25, 0)
s = 127: (0, 207, 16, 94, 69, 62, 61, 21, 59, 70, 28, 0)
s = 128: (0, 109, 11, 61, 58, 38, 60, 19, 34, 56, 29, 0)
s = 129: (0, 154, 14, 61, 84, 68, 101, 12, 96, 47, 21, 0)
s = 130: (0, 107, 13, 47, 95, 42, 79, 23, 58, 41, 15, 0)
s = 131: (0, 116, 18, 41, 63, 73, 115, 14, 76, 35, 18, 0)
s = 132: (0, 87, 13, 34, 66, 63, 115, 17, 40, 41, 31, 0)
s = 133: (0, 98, 15, 41, 63, 59, 69, 17, 46, 55, 22, 0)
s = 134: (0, 65, 23, 81, 50, 55, 71, 22, 65, 59, 29, 0)
s = 135: (0, 153, 16, 32, 49, 40, 90, 19, 73, 56, 27, 0)
s = 136: (0, 128, 14, 55, 77, 31, 65, 11, 67, 53, 21, 0)
s = 137: (0, 93, 16, 37, 60, 45, 74, 17, 84, 60, 23, 0)
s = 138: (0, 74, 11, 50, 117, 67, 88, 20, 101, 69, 28, 0)
s = 139: (0, 103, 15, 33, 48, 79, 122, 22, 56, 55, 31, 0)
s = 140: (0, 122, 10, 43, 51, 35, 78, 12, 48, 31, 29, 0)
s = 141: (0, 114, 11, 49, 106, 38, 70, 16, 57, 35, 51, 0)
s = 142: (0, 73, 15, 34, 55, 47, 64, 17, 39, 78, 35, 0)
s = 143: (0, 64, 11, 42, 126, 38, 126, 18, 81, 41, 31, 0)
s = 144: (0, 101, 12, 69, 62, 32, 100, 19, 47, 73, 22, 0)
s = 145: (0, 90, 16, 55, 75, 70, 128, 18, 75, 56, 20, 0)
s = 146: (0, 137, 19, 38, 60, 53, 136, 17, 55, 47, 13, 0)
s = 147: (0, 68, 14, 70, 80, 88, 94, 15, 80, 50, 18, 0)
s = 148: (0, 103, 12, 42, 49, 49, 138, 15, 68, 39, 21, 0)
s = 149: (0, 83, 14, 51, 104, 50, 65, 20, 66, 34, 20, 0)
s = 150: (0, 95, 17, 47, 63, 77, 90, 13, 54, 49, 41, 0)
s = 151: (0, 83, 11, 48, 60, 66, 71, 16, 92, 47, 26, 0)
s = 152: (0, 89, 16, 40, 111, 48, 117, 17, 50, 45, 15, 0)
s = 153: (0, 173, 10, 58, 106, 47, 47, 21, 42, 57, 31, 0)
s = 154: (0, 86, 11, 46, 77, 52, 96, 24, 67, 37, 18, 0)
s = 155: (0, 96, 8, 55, 83, 39, 66, 25, 86, 61, 27, 0)
s = 156: (0, 103, 18, 42, 110, 88, 72, 14, 42, 45, 33, 0)
s = 157: (0, 151, 14, 41, 68, 58, 94, 20, 40, 53, 29, 0)
s = 158: (0, 88, 8, 48, 112, 29, 105, 14, 56, 48, 38, 0)
s = 159: (0, 74, 14, 63, 53, 66, 84, 17, 63, 31, 47, 0)
s = 160: (0, 66, 10, 72, 133, 33, 45, 24, 54, 37, 26, 0)
s = 161: (0, 120, 20, 44, 64, 40, 70, 17, 77, 31, 28, 0)
s = 162: (0, 91, 17, 59, 102, 40, 91, 11, 70, 66, 24, 0)
s = 163: (0, 66, 10, 49, 85, 42, 57, 14, 83, 51, 17, 0)
s = 164: (0, 143, 18, 46, 52, 76, 128, 14, 69, 80, 18, 0)
s = 165: (0, 71, 15, 47, 51, 64, 95, 19, 52, 58, 17, 0)
s = 166: (0, 96, 14, 53, 60, 47, 76, 14, 57, 65, 21, 0)
s = 167: (0, 85, 16, 71, 55, 33, 83, 18, 46, 69, 20, 0)
s = 168: (0, 118, 14, 83, 48, 54, 78, 16, 67, 33, 25, 0)
s = 169: (0, 98, 9, 36, 72, 50, 95, 22, 46, 61, 28, 0)
s = 170: (0, 103, 13, 38, 43, 30, 65, 24, 56, 41, 19, 0)
s = 171: (0, 165, 17, 54, 99, 47, 103, 20, 41, 36, 24, 0)
s = 172: (0, 163, 11, 38, 97, 57, 67, 19, 39, 49, 36, 0)
s = 173: (0, 128, 13, 90, 51, 61, 46, 26, 75, 47, 27, 0)
s = 174: (0, 72, 10, 69, 44, 33, 102, 26, 37, 55, 17, 0)
s = 175: (0, 77, 20, 59, 50, 41, 124, 27, 65, 57, 26, 0)
s = 176: (0, 130, 9, 57, 52, 42, 106, 15, 54, 31, 25, 0)
s = 177: (0, 146, 13, 52, 48, 49, 62, 20, 34, 53, 14, 0)
s = 178: (0, 81, 15, 46, 77, 38, 63, 20, 75, 43, 16, 0)
s = 179: (0, 113, 24, 55, 109, 34, 133, 19, 72, 65, 21, 0)
s = 180: (0, 72, 12, 88, 109, 64, 103, 21, 72, 45, 21, 0)
s = 181: (0, 147, 14, 47, 66, 34, 87, 16, 33, 65, 27, 0)
s = 182: (0, 117, 19, 54, 69, 39, 58, 17, 73, 33, 29, 0)
s = 183: (0, 115, 8, 65, 87, 53, 88, 18, 80, 48, 23, 0)
s = 184: (0, 123, 11, 49, 60, 53, 100, 18, 55, 37, 20, 0)
s = 185: (0, 199, 21, 81, 75, 33, 66, 28, 102, 38, 26, 0)
s = 186: (0, 183, 12, 35, 65, 58, 59, 22, 53, 47, 38, 0)
s = 187: (0, 68, 10, 51, 112, 42, 72, 20, 53, 65, 26, 0)
s = 188: (0, 135, 8, 84, 74, 30, 55, 25, 47, 54, 31, 0)
s = 189: (0, 125, 12, 59, 79, 43, 94, 18, 45, 28, 29, 0)
s = 190: (0, 91, 18, 33, 64, 62, 88, 11, 61, 45, 15, 0)
s = 191: (0, 122, 12, 57, 70, 62, 48, 13, 59, 32, 37, 0)
s = 192: (0, 99, 17, 43, 48, 51, 98, 29, 43, 39, 20, 0)
s = 193: (0, 137, 13, 34, 123, 62, 56, 23, 42, 39, 26, 0)
s = 194: (0, 77, 11, 66, 52, 39, 56, 15, 50, 32, 43, 0)
s = 195: (0, 93, 16, 90, 57, 69, 90, 21, 56, 57, 17, 0)
s = 196: (0, 111, 11, 45, 59, 74, 133, 21, 46, 41, 21, 0)
s = 197: (0, 77, 14, 39, 44, 49, 87, 28, 49, 45, 26, 0)
s = 198: (0, 148, 14, 80, 80, 27, 61, 12, 86, 37, 26, 0)
s = 199: (0, 124, 14, 67, 83, 68, 65, 15, 60, 63, 29, 0)
s = 200: (0, 147, 14, 65, 115, 46, 57, 16, 62, 35, 22, 0)
------------------------------------------------------------------------
RESOURCE k = 2
s = 1: (0, 51, 12, 22, 80, 23, 55, 7, 23, 34, 17, 0)
s = 2: (0, 36, 8, 13, 43, 19, 26, 7, 16, 32, 12, 0)
s = 3: (0, 39, 7, 15, 50, 40, 29, 11, 32, 25, 10, 0)
s = 4: (0, 56, 8, 12, 64, 26, 45, 6, 19, 40, 15, 0)
s = 5: (0, 50, 12, 27, 85, 19, 33, 15, 17, 42, 11, 0)
s = 6: (0, 27, 17, 13, 62, 40, 31, 6, 19, 24, 19, 0)
s = 7: (0, 33, 7, 16, 50, 19, 41, 10, 26, 36, 16, 0)
s = 8: (0, 52, 10, 29, 64, 32, 44, 8, 18, 39, 7, 0)
s = 9: (0, 44, 9, 20, 50, 27, 66, 9, 17, 32, 12, 0)
s = 10: (0, 44, 7, 16, 56, 27, 41, 8, 13, 35, 13, 0)
s = 11: (0, 49, 12, 16, 54, 34, 33, 13, 25, 25, 16, 0)
s = 12: (0, 75, 7, 12, 43, 38, 47, 7, 25, 42, 8, 0)
s = 13: (0, 35, 10, 28, 40, 44, 40, 5, 15, 34, 11, 0)
s = 14: (0, 47, 12, 11, 72, 45, 27, 9, 21, 32, 16, 0)
s = 15: (0, 77, 11, 14, 61, 17, 53, 7, 15, 35, 16, 0)
s = 16: (0, 38, 9, 24, 63, 31, 26, 8, 17, 29, 10, 0)
s = 17: (0, 37, 9, 18, 33, 28, 38, 6, 18, 29, 12, 0)
s = 18: (0, 71, 12, 11, 85, 26, 25, 5, 23, 38, 15, 0)
s = 19: (0, 45, 11, 20, 81, 17, 24, 7, 17, 21, 10, 0)
s = 20: (0, 68, 10, 20, 93, 24, 43, 5, 22, 37, 14, 0)
s = 21: (0, 54, 6, 22, 59, 43, 53, 5, 16, 28, 14, 0)
s = 22: (0, 51, 8, 28, 76, 20, 42, 9, 25, 45, 8, 0)
s = 23: (0, 57, 8, 13, 57, 33, 28, 10, 13, 40, 20, 0)
s = 24: (0, 59, 10, 13, 84, 40, 41, 11, 17, 41, 13, 0)
s = 25: (0, 65, 7, 14, 52, 28, 34, 7, 14, 39, 15, 0)
s = 26: (0, 48, 10, 19, 62, 22, 43, 9, 17, 24, 12, 0)
s = 27: (0, 52, 9, 16, 39, 34, 46, 8, 16, 23, 10, 0)
s = 28: (0, 45, 16, 21, 60, 20, 41, 7, 12, 22, 14, 0)
s = 29: (0, 42, 9, 13, 62, 27, 30, 14, 23, 21, 12, 0)
s = 30: (0, 45, 11, 16, 89, 27, 22, 7, 19, 38, 15, 0)
s = 31: (0, 50, 14, 18, 98, 32, 53, 5, 22, 33, 10, 0)
s = 32: (0, 61, 14, 26, 56, 18, 43, 8, 29, 25, 10, 0)
s = 33: (0, 45, 8, 15, 61, 31, 36, 6, 26, 36, 19, 0)
s = 34: (0, 37, 10, 26, 56, 41, 35, 15, 13, 24, 7, 0)
s = 35: (0, 58, 8, 13, 55, 21, 31, 10, 11, 54, 16, 0)
s = 36: (0, 40, 8, 19, 83, 24, 42, 14, 18, 26, 8, 0)
s = 37: (0, 44, 8, 29, 52, 29, 35, 7, 16, 29, 9, 0)
s = 38: (0, 48, 11, 15, 50, 18, 27, 9, 23, 36, 16, 0)
s = 39: (0, 66, 15, 17, 74, 22, 31, 9, 21, 47, 13, 0)
s = 40: (0, 36, 6, 19, 57, 34, 35, 5, 15, 31, 12, 0)
s = 41: (0, 34, 11, 23, 43, 37, 25, 10, 23, 20, 8, 0)
s = 42: (0, 56, 7, 17, 92, 21, 36, 7, 32, 42, 11, 0)
s = 43: (0, 51, 9, 13, 85, 27, 25, 9, 26, 20, 10, 0)
s = 44: (0, 58, 10, 12, 44, 35, 43, 6, 11, 34, 12, 0)
s = 45: (0, 49, 8, 15, 65, 26, 29, 8, 12, 27, 14, 0)
s = 46: (0, 63, 9, 14, 72, 30, 31, 9, 33, 42, 8, 0)
s = 47: (0, 65, 6, 13, 78, 37, 25, 6, 15, 26, 12, 0)
s = 48: (0, 42, 7, 14, 87, 47, 25, 5, 21, 46, 11, 0)
s = 49: (0, 53, 11, 25, 47, 30, 50, 7, 14, 41, 11, 0)
s = 50: (0, 52, 11, 18, 111, 37, 45, 14, 18, 20, 10, 0)
s = 51: (0, 38, 7, 19, 51, 20, 33, 8, 16, 24, 13, 0)
s = 52: (0, 44, 7, 24, 96, 42, 39, 7, 20, 36, 17, 0)
s = 53: (0, 50, 12, 17, 97, 24, 36, 10, 25, 33, 7, 0)
s = 54: (0, 44, 8, 19, 49, 38, 62, 6, 19, 26, 16, 0)
s = 55: (0, 41, 10, 20, 40, 28, 55, 9, 15, 38, 11, 0)
s = 56: (0, 50, 12, 33, 57, 36, 32, 14, 13, 20, 21, 0)
s = 57: (0, 36, 6, 13, 83, 16, 32, 8, 21, 25, 9, 0)
s = 58: (0, 59, 8, 25, 55, 41, 32, 6, 24, 39, 18, 0)
s = 59: (0, 58, 17, 15, 64, 22, 44, 11, 15, 20, 16, 0)
s = 60: (0, 41, 7, 14, 89, 28, 44, 12, 20, 44, 13, 0)
s = 61: (0, 70, 11, 20, 48, 37, 50, 12, 19, 49, 8, 0)
s = 62: (0, 60, 7, 14, 66, 42, 55, 9, 16, 24, 9, 0)
s = 63: (0, 38, 9, 22, 51, 23, 45, 11, 16, 22, 16, 0)
s = 64: (0, 51, 10, 15, 102, 22, 47, 10, 28, 23, 11, 0)
s = 65: (0, 45, 9, 26, 92, 28, 24, 6, 27, 38, 17, 0)
s = 66: (0, 52, 10, 23, 36, 33, 58, 5, 21, 29, 8, 0)
s = 67: (0, 27, 8, 21, 64, 32, 34, 8, 20, 31, 10, 0)
s = 68: (0, 59, 15, 15, 73, 25, 25, 9, 27, 25, 12, 0)
s = 69: (0, 44, 10, 20, 63, 22, 26, 12, 13, 35, 13, 0)
s = 70: (0, 41, 10, 26, 56, 34, 33, 9, 15, 39, 10, 0)
s = 71: (0, 41, 8, 18, 63, 18, 29, 12, 32, 31, 12, 0)
s = 72: (0, 48, 8, 18, 48, 28, 57, 9, 21, 26, 11, 0)
s = 73: (0, 42, 7, 26, 42, 22, 32, 5, 27, 32, 14, 0)
s = 74: (0, 42, 8, 11, 68, 39, 27, 8, 12, 38, 14, 0)
s = 75: (0, 42, 15, 16, 76, 18, 37, 8, 29, 26, 11, 0)
s = 76: (0, 65, 6, 15, 73, 40, 43, 15, 23, 41, 16, 0)
s = 77: (0, 40, 10, 17, 59, 21, 39, 8, 24, 22, 7, 0)
s = 78: (0, 81, 6, 14, 69, 29, 20, 6, 17, 44, 15, 0)
s = 79: (0, 36, 9, 13, 84, 32, 23, 11, 26, 28, 7, 0)
s = 80: (0, 46, 9, 16, 97, 39, 24, 7, 21, 23, 11, 0)
s = 81: (0, 41, 6, 17, 86, 22, 31, 6, 24, 21, 13, 0)
s = 82: (0, 38, 8, 12, 53, 22, 43, 10, 24, 33, 13, 0)
s = 83: (0, 38, 12, 16, 55, 37, 26, 7, 32, 29, 8, 0)
s = 84: (0, 50, 6, 14, 57, 23, 26, 7, 16, 25, 9, 0)
s = 85: (0, 71, 7, 17, 56, 27, 44, 11, 12, 37, 13, 0)
s = 86: (0, 53, 8, 16, 52, 42, 25, 13, 21, 29, 11, 0)
s = 87: (0, 54, 10, 23, 58, 27, 41, 10, 15, 31, 11, 0)
s = 88: (0, 60, 8, 13, 47, 30, 37, 8, 16, 27, 16, 0)
s = 89: (0, 46, 7, 15, 66, 39, 28, 9, 18, 31, 16, 0)
s = 90: (0, 35, 7, 24, 53, 25, 43, 8, 20, 26, 13, 0)
s = 91: (0, 51, 12, 23, 47, 28, 46, 7, 21, 36, 13, 0)
s = 92: (0, 74, 10, 16, 79, 22, 26, 9, 15, 19, 13, 0)
s = 93: (0, 32, 6, 14, 88, 34, 41, 13, 17, 35, 17, 0)
s = 94: (0, 45, 7, 16, 60, 23, 29, 5, 20, 35, 9, 0)
s = 95: (0, 73, 8, 17, 59, 24, 27, 5, 24, 41, 22, 0)
s = 96: (0, 69, 6, 26, 52, 22, 36, 9, 27, 23, 12, 0)
s = 97: (0, 58, 12, 23, 64, 41, 23, 7, 18, 37, 11, 0)
s = 98: (0, 84, 6, 17, 53, 20, 36, 8, 14, 34, 16, 0)
s = 99: (0, 39, 10, 12, 64, 35, 46, 12, 17, 27, 11, 0)
s = 100: (0, 57, 9, 21, 58, 19, 30, 10, 23, 26, 14, 0)
s = 101: (0, 53, 16, 27, 55, 37, 36, 8, 23, 35, 15, 0)
s = 102: (0, 36, 6, 26, 47, 24, 28, 6, 24, 21, 16, 0)
s = 103: (0, 57, 9, 14, 75, 28, 39, 5, 16, 42, 10, 0)
s = 104: (0, 51, 10, 18, 85, 21, 51, 5, 26, 38, 13, 0)
s = 105: (0, 27, 9, 22, 69, 23, 55, 7, 17, 32, 15, 0)
s = 106: (0, 62, 6, 12, 85, 28, 29, 8, 29, 29, 8, 0)
s = 107: (0, 42, 10, 31, 68, 23, 33, 10, 15, 19, 14, 0)
s = 108: (0, 54, 6, 14, 37, 33, 33, 6, 16, 31, 11, 0)
s = 109: (0, 54, 7, 26, 52, 30, 45, 9, 19, 44, 12, 0)
s = 110: (0, 43, 9, 21, 55, 20, 50, 5, 20, 33, 11, 0)
s = 111: (0, 74, 8, 26, 74, 19, 37, 7, 21, 22, 10, 0)
s = 112: (0, 45, 13, 16, 58, 25, 58, 11, 15, 36, 15, 0)
s = 113: (0, 44, 12, 17, 42, 15, 28, 8, 15, 40, 21, 0)
s = 114: (0, 77, 13, 15, 66, 25, 43, 7, 32, 24, 17, 0)
s = 115: (0, 35, 12, 25, 62, 26, 22, 12, 16, 26, 7, 0)
s = 116: (0, 50, 11, 22, 71, 23, 28, 7, 34, 30, 11, 0)
s = 117: (0, 57, 11, 13, 52, 25, 54, 8, 27, 40, 10, 0)
s = 118: (0, 43, 11, 18, 84, 38, 55, 12, 19, 22, 9, 0)
s = 119: (0, 69, 18, 12, 69, 18, 38, 9, 12, 27, 12, 0)
s = 120: (0, 32, 9, 19, 70, 48, 32, 7, 21, 26, 9, 0)
s = 121: (0, 36, 7, 24, 66, 26, 51, 14, 25, 33, 7, 0)
s = 122: (0, 34, 9, 14, 74, 24, 26, 7, 28, 37, 10, 0)
s = 123: (0, 72, 13, 12, 61, 20, 38, 8, 12, 23, 11, 0)
s = 124: (0, 43, 7, 11, 69, 31, 25, 11, 31, 25, 8, 0)
s = 125: (0, 47, 14, 12, 94, 21, 37, 5, 17, 47, 14, 0)
s = 126: (0, 73, 8, 13, 34, 16, 26, 12, 19, 43, 13, 0)
s = 127: (0, 91, 11, 32, 57, 34, 25, 10, 20, 47, 14, 0)
s = 128: (0, 48, 8, 21, 47, 21, 25, 9, 12, 37, 15, 0)
s = 129: (0, 68, 10, 21, 69, 37, 42, 6, 32, 32, 11, 0)
s = 130: (0, 47, 9, 16, 78, 23, 33, 11, 20, 28, 8, 0)
s = 131: (0, 51, 13, 14, 51, 40, 48, 6, 26, 23, 9, 0)
s = 132: (0, 38, 9, 12, 54, 34, 47, 8, 14, 27, 16, 0)
s = 133: (0, 43, 11, 14, 52, 32, 29, 8, 16, 37, 11, 0)
s = 134: (0, 29, 16, 27, 41, 30, 30, 10, 22, 39, 15, 0)
s = 135: (0, 67, 11, 11, 40, 22, 38, 9, 25, 37, 14, 0)
s = 136: (0, 56, 10, 19, 63, 17, 27, 5, 23, 35, 11, 0)
s = 137: (0, 41, 11, 13, 50, 24, 31, 8, 28, 40, 12, 0)
s = 138: (0, 33, 8, 17, 96, 36, 37, 9, 34, 46, 14, 0)
s = 139: (0, 45, 10, 11, 40, 43, 51, 10, 19, 37, 16, 0)
s = 140: (0, 54, 7, 15, 42, 19, 32, 6, 16, 21, 15, 0)
s = 141: (0, 50, 8, 17, 86, 21, 29, 7, 19, 24, 26, 0)
s = 142: (0, 32, 11, 12, 45, 26, 27, 8, 13, 52, 18, 0)
s = 143: (0, 28, 8, 14, 103, 20, 52, 8, 27, 28, 16, 0)
s = 144: (0, 45, 8, 23, 51, 18, 42, 9, 16, 49, 11, 0)
s = 145: (0, 40, 11, 19, 62, 38, 53, 8, 25, 37, 10, 0)
s = 146: (0, 60, 13, 13, 49, 29, 56, 8, 19, 31, 7, 0)
s = 147: (0, 30, 10, 24, 65, 48, 39, 7, 27, 33, 9, 0)
s = 148: (0, 46, 9, 14, 40, 27, 57, 7, 23, 26, 11, 0)
s = 149: (0, 37, 10, 17, 85, 27, 27, 9, 22, 23, 10, 0)
s = 150: (0, 42, 12, 16, 51, 42, 37, 6, 18, 33, 21, 0)
s = 151: (0, 37, 8, 16, 49, 36, 30, 7, 31, 32, 13, 0)
s = 152: (0, 39, 11, 14, 91, 26, 48, 8, 17, 30, 8, 0)
s = 153: (0, 76, 7, 20, 87, 25, 20, 10, 14, 38, 16, 0)
s = 154: (0, 38, 8, 16, 63, 28, 40, 11, 23, 25, 9, 0)
s = 155: (0, 42, 5, 19, 68, 21, 27, 11, 29, 41, 14, 0)
s = 156: (0, 45, 13, 14, 90, 48, 30, 7, 14, 30, 17, 0)
s = 157: (0, 66, 10, 14, 55, 32, 39, 9, 14, 36, 15, 0)
s = 158: (0, 39, 6, 16, 92, 16, 44, 7, 19, 32, 19, 0)
s = 159: (0, 33, 10, 21, 44, 36, 35, 8, 21, 21, 24, 0)
s = 160: (0, 29, 7, 24, 109, 18, 19, 11, 18, 25, 13, 0)
s = 161: (0, 53, 14, 15, 53, 22, 29, 8, 26, 21, 14, 0)
s = 162: (0, 40, 12, 20, 83, 22, 38, 5, 24, 44, 12, 0)
s = 163: (0, 29, 7, 17, 70, 23, 24, 7, 28, 34, 9, 0)
s = 164: (0, 63, 13, 16, 43, 41, 53, 7, 23, 54, 9, 0)
s = 165: (0, 31, 11, 16, 42, 35, 39, 9, 18, 39, 9, 0)
s = 166: (0, 42, 10, 18, 49, 26, 32, 7, 19, 43, 11, 0)
s = 167: (0, 38, 11, 24, 45, 18, 34, 8, 16, 46, 10, 0)
s = 168: (0, 52, 10, 28, 39, 29, 32, 8, 23, 22, 13, 0)
s = 169: (0, 43, 6, 12, 59, 27, 39, 10, 16, 41, 14, 0)
s = 170: (0, 45, 9, 13, 35, 17, 27, 11, 19, 27, 10, 0)
s = 171: (0, 73, 12, 18, 81, 25, 43, 9, 14, 24, 12, 0)
s = 172: (0, 72, 8, 13, 80, 31, 28, 9, 13, 33, 18, 0)
s = 173: (0, 56, 9, 30, 42, 33, 19, 12, 25, 31, 14, 0)
s = 174: (0, 32, 7, 23, 36, 18, 42, 12, 13, 37, 9, 0)
s = 175: (0, 34, 14, 20, 41, 22, 51, 12, 22, 38, 13, 0)
s = 176: (0, 57, 6, 19, 42, 23, 44, 7, 18, 21, 13, 0)
s = 177: (0, 64, 9, 18, 39, 27, 26, 9, 12, 35, 7, 0)
s = 178: (0, 36, 11, 16, 63, 21, 26, 9, 25, 29, 8, 0)
s = 179: (0, 50, 17, 19, 89, 19, 55, 9, 24, 44, 11, 0)
s = 180: (0, 32, 9, 30, 89, 34, 43, 10, 24, 30, 11, 0)
s = 181: (0, 65, 10, 16, 54, 19, 36, 7, 11, 43, 14, 0)
s = 182: (0, 51, 13, 18, 57, 21, 24, 8, 25, 22, 15, 0)
s = 183: (0, 51, 6, 22, 71, 29, 37, 8, 27, 32, 12, 0)
s = 184: (0, 54, 8, 17, 49, 29, 42, 8, 19, 25, 10, 0)
s = 185: (0, 87, 15, 27, 61, 18, 27, 13, 34, 26, 13, 0)
s = 186: (0, 80, 8, 12, 53, 31, 25, 10, 18, 31, 19, 0)
s = 187: (0, 30, 7, 17, 91, 23, 30, 9, 18, 44, 13, 0)
s = 188: (0, 59, 6, 28, 60, 16, 23, 12, 16, 36, 16, 0)
s = 189: (0, 55, 9, 20, 65, 23, 39, 8, 15, 19, 15, 0)
s = 190: (0, 40, 12, 11, 53, 34, 37, 5, 21, 30, 8, 0)
s = 191: (0, 54, 8, 19, 58, 33, 20, 6, 20, 21, 19, 0)
s = 192: (0, 43, 12, 15, 39, 27, 41, 13, 15, 26, 10, 0)
s = 193: (0, 60, 9, 12, 101, 34, 23, 11, 14, 26, 13, 0)
s = 194: (0, 34, 8, 22, 43, 21, 23, 7, 17, 21, 22, 0)
s = 195: (0, 41, 11, 30, 47, 37, 37, 10, 19, 38, 9, 0)
s = 196: (0, 49, 8, 15, 48, 40, 55, 10, 16, 27, 11, 0)
s = 197: (0, 34, 10, 13, 36, 27, 36, 13, 17, 30, 13, 0)
s = 198: (0, 65, 10, 27, 66, 15, 26, 6, 29, 25, 13, 0)
s = 199: (0, 55, 10, 23, 68, 37, 27, 7, 20, 42, 15, 0)
s = 200: (0, 65, 10, 22, 95, 25, 24, 8, 21, 23, 11, 0)
************************************************************************
ES/LS-VALUES:
jobnr.   ES(i)    LS(i)
------------------------------------------------------------------------
  0        0        0
  1        0       49
  2        0       54
  3        0       37
  4        5       43
  5        2       59
  6       17       56
  7       13       62
  8       26       66
  9       16       66
 10       13       68
 11       32       73
************************************************************************
BIG-M-VALUES:
M1 = 46, M2 = 298
************************************************************************
